10
10
77	30	97	36	97	36	51	95	18	50	
81	64	12	88	45	26	98	3	90	6	
43	51	53	46	49	31	73	39	9	87	
75	2	66	13	93	71	21	4	57	95	
67	14	58	65	55	88	91	15	29	22	
45	76	59	51	32	4	36	38	46	96	
51	84	33	28	89	6	10	76	93	3	
87	68	33	10	82	86	91	87	23	14	
16	50	2	54	4	17	18	23	83	59	
46	73	18	61	19	55	29	88	53	14	